(declare-const term_to_project_onto Real)
(declare-const term_to_project_onto1 Real)
(declare-const term_to_project_onto0 Real)
(assert (exists
         ((|y'?1| Int) (|x'?2| Int) (|__cost'?3| Int) (phi_y?4 Int)
            (phi_x?5 Int) (havoc?6 Int) (x?7 Int) (y?8 Int) (__cost?9 Int))
         (and (<= (+ (- x?7) y?8 1) 0) (<= (- __cost?9) 0)
                (<= (+ (- __cost?9) -1) 0)
                (or (and (= havoc?6 0) (= (+ (- phi_x?5) x?7 -1) 0)
                           (= (+ (- phi_y?4) y?8) 0))
                      (and (or (<= (+ havoc?6 1) 0) (<= (+ (- havoc?6) 1) 0))
                             (= (+ (- phi_x?5) x?7) 0)
                             (= (+ (- phi_y?4) y?8 1) 0)))
                (= (+ |y'?1| (- phi_y?4)) 0) (= (+ |x'?2| (- phi_x?5)) 0)
                (= (+ |__cost'?3| (- __cost?9) -1) 0)
                (= term_to_project_onto1 (+ |__cost'?3| (- __cost?9)))
                (= term_to_project_onto0 (+ |x'?2| (- x?7)))
                (= term_to_project_onto (+ |y'?1| (- y?8))))))
(check-sat)
